27
13
20 16 25 21 8 3 1 17 10 15 23 11 13 12 2 14 18 0 19 4 5 22 6
21 1 7 13
4 16 9 14 12 18 10 19 0 15 11 5
3 19 15 0 22 23 18 10 24 21 1 17 25 16 7 8 14 4 12 26 20 13 11 5
22 5 7 1 24 14 16 2 19 3 6
25 11 0 20 6 8 12 16 7 17 18 15 19 4 1 24 23 26 10 21 3 14 2 13 22
12 8 25 9 11 19 4 24 13 23 18 7 5 16 15 10 20
19 6 15 0 2 3 20 17 14 23 21 7 9 10 24 16 25 1 13 26 5 22 8 11
21 2 4 11 17 26 7 19 1 9 25 18 0 13 8 23 16 20 5 12
6 17 11 16 20
14 21 19 16 23 24 22 3 26 20 5 0 11 10 1 4 25 8 2 13 9
20 6 10 19 26 13 15 9 18 22 24 3 17 25 5 12 1 21 2 7 4 23 8
15 22 3 2 18 0 14 5 11 20 1 13 9 6 25 10 19 17 7 16 4 21 26
